
******************************************************************************
This program contains Ipopt, a library for large-scale nonlinear optimization.
 Ipopt is released as open source code under the Eclipse Public License (EPL).
         For more information visit http://projects.coin-or.org/Ipopt

This version of Ipopt was compiled from source code available at
    https://github.com/IDAES/Ipopt as part of the Institute for the Design of
    Advanced Energy Systems Process Systems Engineering Framework (IDAES PSE
    Framework) Copyright (c) 2018-2019. See https://github.com/IDAES/idaes-pse.

This version of Ipopt was compiled using HSL, a collection of Fortran codes
    for large-scale scientific computation.  All technical papers, sales and
    publicity material resulting from use of the HSL codes within IPOPT must
    contain the following acknowledgement:
        HSL, a collection of Fortran codes for large-scale scientific
        computation. See http://www.hsl.rl.ac.uk.
******************************************************************************

This is Ipopt version 3.13.2, running with linear solver ma27.

Number of nonzeros in equality constraint Jacobian...:      808
Number of nonzeros in inequality constraint Jacobian.:        0
Number of nonzeros in Lagrangian Hessian.............:      702

Total number of variables............................:      351
                     variables with only lower bounds:      108
                variables with lower and upper bounds:      189
                     variables with only upper bounds:        0
Total number of equality constraints.................:      350
Total number of inequality constraints...............:        0
        inequality constraints with only lower bounds:        0
   inequality constraints with lower and upper bounds:        0
        inequality constraints with only upper bounds:        0

iter    objective    inf_pr   inf_du lg(mu)  ||d||  lg(rg) alpha_du alpha_pr  ls
   0  0.0000000e+00 4.51e-01 1.55e-15  -1.0 0.00e+00    -  0.00e+00 0.00e+00   0
   1  4.4302822e+00 1.55e+00 4.03e+04  -1.0 2.60e+05    -  5.00e-01 4.95e-01h  1
   2  4.9165484e+00 1.47e+00 3.83e+04  -1.0 1.54e+05    -  8.01e-01 4.55e-02h  1
   3  5.5921402e+00 1.38e+00 3.62e+04  -1.0 2.07e+05    -  8.03e-01 5.96e-02h  1
   4  2.6635746e+01 1.16e-01 3.47e+03  -1.0 1.98e+05    -  8.16e-01 9.90e-01h  1
   5  3.0372293e+01 1.01e-03 1.38e+03  -1.0 2.34e+04    -  9.69e-01 9.90e-01h  1
   6  3.0450464e+01 1.09e-05 1.68e+01  -1.0 4.74e+02    -  9.90e-01 9.90e-01h  1
   7  3.0451390e+01 1.07e-05 2.15e+07  -1.0 8.00e+02    -  9.90e-01 1.55e-02f  7
   8  3.0455030e+01 1.02e-05 4.25e+07  -1.0 1.58e+03    -  9.94e-01 3.09e-02f  6
   9  3.0569094e+01 7.53e-05 6.56e+05  -1.0 1.56e+03    -  1.00e+00 9.90e-01H  1
iter    objective    inf_pr   inf_du lg(mu)  ||d||  lg(rg) alpha_du alpha_pr  ls
  10  3.0569477e+01 7.93e-07 2.31e+07  -1.0 5.10e+00    -  1.00e+00 9.90e-01h  1
  11  3.0569477e+01 7.93e-09 2.31e+09  -1.0 2.98e-03    -  1.00e+00 9.90e-01h  1
  12  3.0569477e+01 8.22e-11 2.31e+11  -1.0 5.36e-05    -  1.00e+00 9.90e-01h  1
In iteration 12, 27 Slacks too small, adjusting variable bounds
  13  3.0569477e+01 4.23e-11 2.31e+13  -1.0 7.59e-05    -  1.00e+00 9.90e-01h  1
  14  3.0569477e+01 4.25e-11 2.15e+15  -1.0 3.89e-05    -  1.00e+00 6.25e-02h  5
  15  3.0569477e+01 4.26e-11 2.15e+15  -1.0 3.91e-05    -  1.00e+00 6.10e-05h 15
  16  3.0569477e+01 4.75e-11 1.95e-01  -1.0 3.92e-05    -  1.00e+00 1.00e+00s 22
  17  3.0451079e+01 9.69e-04 1.90e+00  -9.0 1.91e+03    -  8.37e-01 8.37e-01s 22
  18  3.0449877e+01 1.24e-08 6.92e-04  -9.0 1.53e+01    -  1.00e+00 1.00e+00s 22
  19  3.0449877e+01 7.09e-11 5.68e-09  -9.0 1.89e-04    -  1.00e+00 1.00e+00s 22

Number of Iterations....: 19

                                   (scaled)                 (unscaled)
Objective...............:   3.0449877389372340e+01    3.0449877389372340e+01
Dual infeasibility......:   5.6752469390630722e-09    5.6752469390630722e-09
Constraint violation....:   7.0888878100916486e-11    7.0888878100916486e-11
Complementarity.........:   9.0931004513257051e-10    9.0931004513257051e-10
Overall NLP error.......:   7.0888878100916486e-11    5.6752469390630722e-09


Number of objective function evaluations             = 82
Number of objective gradient evaluations             = 20
Number of equality constraint evaluations            = 82
Number of inequality constraint evaluations          = 0
Number of equality constraint Jacobian evaluations   = 20
Number of inequality constraint Jacobian evaluations = 0
Number of Lagrangian Hessian evaluations             = 19
Total CPU secs in IPOPT (w/o function evaluations)   =      0.043
Total CPU secs in NLP function evaluations           =      0.649

EXIT: Optimal Solution Found.
